
******************************************************************************
This program contains Ipopt, a library for large-scale nonlinear optimization.
 Ipopt is released as open source code under the Eclipse Public License (EPL).
         For more information visit http://projects.coin-or.org/Ipopt

This version of Ipopt was compiled from source code available at
    https://github.com/IDAES/Ipopt as part of the Institute for the Design of
    Advanced Energy Systems Process Systems Engineering Framework (IDAES PSE
    Framework) Copyright (c) 2018-2019. See https://github.com/IDAES/idaes-pse.

This version of Ipopt was compiled using HSL, a collection of Fortran codes
    for large-scale scientific computation.  All technical papers, sales and
    publicity material resulting from use of the HSL codes within IPOPT must
    contain the following acknowledgement:
        HSL, a collection of Fortran codes for large-scale scientific
        computation. See http://www.hsl.rl.ac.uk.
******************************************************************************

This is Ipopt version 3.13.2, running with linear solver ma27.

Number of nonzeros in equality constraint Jacobian...:      808
Number of nonzeros in inequality constraint Jacobian.:        0
Number of nonzeros in Lagrangian Hessian.............:      702

Total number of variables............................:      351
                     variables with only lower bounds:      108
                variables with lower and upper bounds:      189
                     variables with only upper bounds:        0
Total number of equality constraints.................:      350
Total number of inequality constraints...............:        0
        inequality constraints with only lower bounds:        0
   inequality constraints with lower and upper bounds:        0
        inequality constraints with only upper bounds:        0

iter    objective    inf_pr   inf_du lg(mu)  ||d||  lg(rg) alpha_du alpha_pr  ls
   0  0.0000000e+00 1.94e+00 4.44e-16  -1.0 0.00e+00    -  0.00e+00 0.00e+00   0
   1  3.4021736e-02 1.68e+00 5.93e+04  -1.0 6.37e+04    -  9.07e-02 2.01e-01h  1
   2  4.7657495e-02 1.61e+00 5.65e+04  -1.0 5.16e+04    -  1.81e-01 4.56e-02h  1
   3  4.8698836e-02 1.60e+00 5.63e+04  -1.0 1.08e+05    -  8.80e-01 3.02e-03h  1
   4  2.0176541e+00 9.96e-01 2.06e+04  -1.0 1.20e+05    -  3.06e-01 9.90e-01h  1
   5  2.1801718e+00 1.34e+00 1.69e+04  -1.0 3.14e+04    -  6.85e-01 2.26e-01h  3
   6  2.7971371e+00 2.21e-01 5.61e+03  -1.0 2.45e+04    -  9.66e-01 9.90e-01h  1
   7  2.8098342e+00 1.05e-02 5.79e+01  -1.0 6.04e+02    -  9.90e-01 9.90e-01h  1
   8  2.8335293e+00 1.26e-04 2.31e+02  -1.0 8.01e+02    -  9.90e-01 9.90e-01h  1
   9  2.8096098e+00 5.74e-05 1.82e+05  -3.8 8.61e+02    -  1.00e+00 9.29e-01f  1
iter    objective    inf_pr   inf_du lg(mu)  ||d||  lg(rg) alpha_du alpha_pr  ls
  10  2.8097147e+00 1.70e-08 5.42e+03  -3.8 3.64e+00    -  1.00e+00 1.00e+00h  1
  11  2.8097144e+00 2.08e-12 3.58e+07  -3.8 7.94e-03    -  1.00e+00 1.00e+00h  1
In iteration 11, 27 Slacks too small, adjusting variable bounds
  12  2.8097144e+00 3.79e-13 2.38e+11  -3.8 1.19e-06    -  1.00e+00 1.00e+00h  1
  13  2.8097144e+00 2.77e-13 1.43e-02  -3.8 3.07e-08    -  1.00e+00 1.00e+00H  1
  14  2.8097143e+00 2.63e-13 2.38e+11  -9.0 5.04e+00    -  1.00e+00 4.88e-04f 12
  15  2.8097140e+00 2.77e-13 2.38e+11  -9.0 5.04e+00    -  1.00e+00 1.95e-03f 10
  16  2.8097140e+00 1.35e-13 2.38e+11  -9.0 5.03e+00    -  1.00e+00 3.05e-05h 16
  17  2.8097140e+00 1.64e-13 2.38e+11  -9.0 5.03e+00    -  1.00e+00 1.19e-07h 24
  18  2.8097135e+00 2.25e-13 2.37e+11  -9.0 5.03e+00    -  1.00e+00 3.91e-03f  9
  19  2.8095640e+00 2.17e-09 4.48e-05  -9.0 5.01e+00    -  1.00e+00 1.00e+00f  1
iter    objective    inf_pr   inf_du lg(mu)  ||d||  lg(rg) alpha_du alpha_pr  ls
  20  2.8095640e+00 1.17e-12 2.33e-10  -9.0 4.94e-05    -  1.00e+00 1.00e+00h  1

Number of Iterations....: 20

                                   (scaled)                 (unscaled)
Objective...............:   2.8095639650337136e+00    2.8095639650337136e+00
Dual infeasibility......:   2.3283064365386963e-10    2.3283064365386963e-10
Constraint violation....:   1.1748380046583407e-12    1.1748380046583407e-12
Complementarity.........:   9.0909090909090931e-10    9.0909090909090931e-10
Overall NLP error.......:   1.1748380046583407e-12    9.0909090909090931e-10


Number of objective function evaluations             = 112
Number of objective gradient evaluations             = 21
Number of equality constraint evaluations            = 112
Number of inequality constraint evaluations          = 0
Number of equality constraint Jacobian evaluations   = 21
Number of inequality constraint Jacobian evaluations = 0
Number of Lagrangian Hessian evaluations             = 20
Total CPU secs in IPOPT (w/o function evaluations)   =      0.039
Total CPU secs in NLP function evaluations           =      0.723

EXIT: Optimal Solution Found.
